NAME: test1196
TYPE: TSP
DIMENSION: 11
EDGE_WEIGHT_TYPE: EUC_2D
NODE_COORD_SECTION
1 58.24443763799928 93.6714155469853
2 96.9337527329184 22.614112386943162
3 24.519964539591243 62.6403707397171
4 72.35146452460785 58.51019352219006
5 59.17750356554464 44.82618564093996
6 41.33773534701095 77.13209908575742
7 82.97841562317956 92.20848979283498
8 85.73081011256642 79.51247699123097
9 38.17865378075817 17.539858067585545
10 33.41440607275192 97.89013782101559
11 64.53118697784936 41.480880733623195
EOF
